time,p0,stress_xx,stress_yy,stress_zz,zdisp
1,0.03,-0.01005,-0.01005,-0.0402,-0.01
2,0.06,-0.0202,-0.0202,-0.0808,-0.02
3,0.09,-0.03045,-0.03045,-0.1218,-0.03
4,0.12,-0.0408,-0.0408,-0.1632,-0.04
5,0.15,-0.05125,-0.05125,-0.205,-0.05
6,0.18,-0.0618,-0.0618,-0.2472,-0.06
7,0.21,-0.07245,-0.07245,-0.2898,-0.07
8,0.24,-0.0832,-0.0832,-0.3328,-0.08
9,0.27,-0.09405,-0.09405,-0.3762,-0.09
10,0.3,-0.105,-0.105,-0.42,-0.1
