time,stress_xx,stress_yy,stress_zz,zdisp
0,0,0,0,0
1,-0.122625,-0.122625,-0.4905,0
2,-0.122625,-0.122625,-0.4905,0
3,-0.122625,-0.122625,-0.4905,0

